; Benchmark for LTL-sketching problem
(set-logic QF_UF)
(set-info :status unknown)
(declare-fun z_1_0 () Bool)
(declare-fun z_0_0 () Bool)
(declare-fun z_0_2 () Bool)
(declare-fun z_1_1 () Bool)
(declare-fun z_0_1 () Bool)
(declare-fun z_1_2 () Bool)
(declare-fun z_0_4 () Bool)
(declare-fun z_1_3 () Bool)
(declare-fun z_0_3 () Bool)
(declare-fun z_0_5 () Bool)
(declare-fun z_1_4 () Bool)
(declare-fun z_1_5 () Bool)
(declare-fun z_1_6 () Bool)
(declare-fun z_0_6 () Bool)
(declare-fun z_0_8 () Bool)
(declare-fun z_1_7 () Bool)
(declare-fun z_0_7 () Bool)
(declare-fun z_0_9 () Bool)
(declare-fun z_1_8 () Bool)
(declare-fun z_0_10 () Bool)
(declare-fun z_1_9 () Bool)
(declare-fun z_1_10 () Bool)
(declare-fun z_0_12 () Bool)
(declare-fun z_1_11 () Bool)
(declare-fun z_0_11 () Bool)
(declare-fun z_0_13 () Bool)
(declare-fun z_1_12 () Bool)
(declare-fun z_0_14 () Bool)
(declare-fun z_1_13 () Bool)
(declare-fun z_0_15 () Bool)
(declare-fun z_1_14 () Bool)
(declare-fun z_0_16 () Bool)
(declare-fun z_1_15 () Bool)
(declare-fun z_0_17 () Bool)
(declare-fun z_1_16 () Bool)
(declare-fun z_0_18 () Bool)
(declare-fun z_1_17 () Bool)
(declare-fun z_1_18 () Bool)
(declare-fun z_0_20 () Bool)
(declare-fun z_1_19 () Bool)
(declare-fun z_0_19 () Bool)
(declare-fun z_1_20 () Bool)
(declare-fun z_0_22 () Bool)
(declare-fun z_1_21 () Bool)
(declare-fun z_0_21 () Bool)
(declare-fun z_0_23 () Bool)
(declare-fun z_1_22 () Bool)
(declare-fun z_0_24 () Bool)
(declare-fun z_1_23 () Bool)
(declare-fun z_0_25 () Bool)
(declare-fun z_1_24 () Bool)
(declare-fun z_0_26 () Bool)
(declare-fun z_1_25 () Bool)
(declare-fun z_0_27 () Bool)
(declare-fun z_1_26 () Bool)
(declare-fun z_1_27 () Bool)
(declare-fun z_0_29 () Bool)
(declare-fun z_1_28 () Bool)
(declare-fun z_0_28 () Bool)
(declare-fun z_1_29 () Bool)
(declare-fun z_1_30 () Bool)
(declare-fun z_0_30 () Bool)
(declare-fun z_0_32 () Bool)
(declare-fun z_1_31 () Bool)
(declare-fun z_0_31 () Bool)
(declare-fun z_1_32 () Bool)
(assert
 (= z_0_0 (and z_1_0)))
(assert
 (= z_0_1 (and z_1_1 z_0_2)))
(assert
 (= z_0_2 (and z_1_2 z_0_0)))
(assert
 (= z_0_3 (and z_1_3 z_0_4)))
(assert
 (= z_0_4 (and z_1_4 z_0_5)))
(assert
 (= z_0_5 (and z_1_5 z_1_3 z_1_4)))
(assert
 (= z_0_6 (and z_1_6 z_0_5)))
(assert
 (= z_0_7 (and z_1_7 z_0_8)))
(assert
 (= z_0_8 (and z_1_8 z_0_9)))
(assert
 (= z_0_9 (and z_1_9 z_0_10)))
(assert
 (= z_0_10 (and z_1_10 z_1_9)))
(assert
 (= z_0_11 (and z_1_11 z_0_12)))
(assert
 (= z_0_12 (and z_1_12 z_0_13)))
(assert
 (= z_0_13 (and z_1_13 z_0_14)))
(assert
 (= z_0_14 (and z_1_14 z_0_15)))
(assert
 (= z_0_15 (and z_1_15 z_0_16)))
(assert
 (= z_0_16 (and z_1_16 z_0_17)))
(assert
 (= z_0_17 (and z_1_17 z_0_18)))
(assert
 (= z_0_18 (and z_1_18 z_1_15 z_1_16 z_1_17)))
(assert
 (= z_0_19 (and z_1_19 z_0_20)))
(assert
 (= z_0_20 (and z_1_20 z_0_16)))
(assert
 (= z_0_21 (and z_1_21 z_0_22)))
(assert
 (= z_0_22 (and z_1_22 z_0_23)))
(assert
 (= z_0_23 (and z_1_23 z_0_24)))
(assert
 (= z_0_24 (and z_1_24 z_0_25)))
(assert
 (= z_0_25 (and z_1_25 z_0_26)))
(assert
 (= z_0_26 (and z_1_26 z_0_27)))
(assert
 (= z_0_27 (and z_1_27 z_1_24 z_1_25 z_1_26)))
(assert
 (= z_0_28 (and z_1_28 z_0_29)))
(assert
 (= z_0_29 (and z_1_29)))
(assert
 (= z_0_30 (and z_1_30 z_0_19)))
(assert
 (= z_0_31 (and z_1_31 z_0_32)))
(assert
 (= z_0_32 (and z_1_32 z_0_28)))
(assert
 z_0_0)
(assert
 (not z_0_1))
(assert
 (not z_0_3))
(assert
 (not z_0_6))
(assert
 (not z_0_7))
(assert
 (not z_0_11))
(assert
 (not z_0_19))
(assert
 (not z_0_21))
(assert
 (not z_0_28))
(assert
 (not z_0_30))
(assert
 (not z_0_31))
(check-sat)

